cleaned_string_benchmarks/SV-COMP/17597_jbmc-regression_StringValueOf02_Main_3.smt2
(declare-const _string0 String)
(assert (bvslt #x00000000 ((_ int2bv 32) (str.len _string0))))
(assert (bvslt #x00000001 ((_ int2bv 32) (str.len _string0))))
(assert (bvslt #x00000002 ((_ int2bv 32) (str.len _string0))))
(assert (and (and true (<= -8 (str.len _string0))) (<= (str.len _string0) 8)))
(check-sat)
