cleaned_string_benchmarks/operator-statistics/sv-comp/17597_jbmc-regression_StringValueOf02_Main_3.out
&&	2
<=	2
str.len	5
assert	4
variable	1
casting	3
<	3
